Route #1: 67 34 46 8 52 27 45 4
Route #2: 75 68 6 51 33 63 16 3 44 32
Route #3: 72 39 9 50 18 55 25 31 10 58
Route #4: 24 49 23 56 41 43 42 64 22 1 73
Route #5: 62 28 61 21 69 36 37 5 29 30
Route #6: 2 74 48 47 71 60 70 20 15 57 13 54
Route #7: 19 14 59 11 66 65 38
Route #8: 35 53 7 26 12 40 17
Cost 799